  units            lj
  atom_style       full
  bond_style      harmonic
  angle_style     cosine/delta
  pair_style      dpd  1.0  1.0  419084618
  special_bonds   lj 1 1 1

